! SED_FUNCTIONAL_SED SED_BASISSET_SED TIGHTSCF TIGHTOPT Grid5 FINALGrid6
! PAL4
* xyzfile 0 1 SED_CATION_SEDSED_ANION_SED.xyz

%scf MaxIter 300 end 
% MaxCore 1200

