43
IM1 il.ff
CW         -3.93278       -0.30415       -1.92954
CW         -5.23148        0.14677       -1.81453
NA         -5.70697       -0.24855       -0.61721
CR         -4.71175       -0.92878       -0.01665
NA         -3.61635       -0.97280       -0.80061
HCW         -3.27097       -0.15413       -2.77264
HCW         -5.78436        0.71858       -2.54860
HCR         -4.78266       -1.37729        0.96672
C1         -7.03417        0.00643       -0.07248
H1         -7.64465        0.59375       -0.79137
H1         -6.94508        0.57985        0.87404
H1         -7.54650       -0.95752        0.12950
C1         -2.34032       -1.61725       -0.49047
C2         -1.21843       -0.57449       -0.45520
H1         -2.12599       -2.38817       -1.26216
H1         -2.40184       -2.11946        0.50056
CS          0.13368       -1.20654       -0.13855
HC         -1.47767        0.14927        0.33764
HC         -1.15892       -0.08174       -1.44918
CS          1.36432       -0.27084       -0.20146
HC          0.30985       -2.00837       -0.88989
HC          0.08824       -1.68545        0.86449
CS          1.49850        0.82906        0.88043
HC          1.53803        0.14659       -1.21656
HC          2.20526       -0.97476       -0.00769
CS          1.09506        2.27423        0.50192
HC          2.59324        0.92984        1.05839
HC          1.05785        0.49542        1.84438
CS         -0.39255        2.53034        0.27361
HC          1.41880        2.92180        1.34703
HC          1.66309        2.58745       -0.40195
CS         -0.67876        4.01955        0.03037
HC         -0.70390        1.97619       -0.62567
HC         -0.95666        2.20347        1.17401
CS         -2.17988        4.32417       -0.11699
HC         -0.30499        4.60149        0.90127
HC         -0.13624        4.36521       -0.87697
CT         -2.82899        3.64568       -1.32440
HC         -2.29792        5.42313       -0.23493
HC         -2.71641        4.01701        0.80707
HC         -2.31553        3.95111       -2.26042
HC         -3.89490        3.95041       -1.38760
HC         -2.80077        2.54094       -1.22980
