31
IM6 il.ff
CW         -2.24000       -0.55800       -0.50600
CW         -3.41000        0.17400       -0.53200
NA         -3.23600        1.26800        0.23500
CR         -1.98100        1.20100        0.71700
NA         -1.35300        0.09200        0.27400
HCW         -2.05200       -1.49200       -1.01900
HCW         -4.31700       -0.07500       -1.06700
HCR         -1.53600        1.93800        1.37400
C1         -4.20800        2.32100        0.49800
H1         -5.16200        2.11300       -0.03200
H1         -3.80800        3.29600        0.14700
H1         -4.40900        2.38000        1.58900
C1          0.01300       -0.33000        0.58200
C2          1.02600        0.70400        0.07800
H1          0.22100       -1.30800        0.09400
H1          0.11400       -0.45800        1.68200
CS          2.46200        0.26500        0.38700
HC          0.83000        1.68300        0.56700
HC          0.90300        0.82300       -1.02100
CS          3.47400        1.29900       -0.12100
HC          2.66000       -0.71400       -0.10300
HC          2.58000        0.14500        1.48600
CS          4.91100        0.86000        0.18700
HC          3.27600        2.27800        0.36900
HC          3.35600        1.41800       -1.22100
CT          5.92300        1.89300       -0.32100
HC          5.10900       -0.11900       -0.30200
HC          5.02900        0.74000        1.28700
HC          7.35900        1.45400       -0.01100
HC          5.72600        2.87200        0.16900
HC          5.80500        2.01300       -1.42000

