24
SO6 il.ff
SO         -3.87662        0.70800        0.01880
OS4         -2.81240       -0.12609       -0.71207
OS4         -3.59817        0.47490        1.51240
OS4         -5.41478        0.04829       -0.36553
OC4         -3.70399        2.38744       -0.37722
CS4         -2.35953        2.78636       -0.22546
HS4         -1.78221        2.13201        0.46736
HS4         -2.35690        3.79541        0.23908
CS         -1.67679        2.85570       -1.59354
HC         -2.24769        3.55187       -2.24649
HC         -1.68339        1.84726       -2.05974
CS         -0.22978        3.34596       -1.46523
HC          0.33715        2.64754       -0.81065
HC         -0.22444        4.35652       -1.00008
CS          0.45041        3.41723       -2.83752
HC         -0.11671        4.11539       -3.49219
HC          0.44499        2.40659       -3.30254
CS          1.89773        3.90710       -2.70958
HC          2.46480        3.20891       -2.05490
HC          1.90318        4.91773       -2.24458
CT          2.57788        3.97830       -4.08196
HC          2.01075        4.67644       -4.73664
HC          2.57242        2.96765       -4.54694
HC          4.02521        4.46823       -3.95412


